
































































































21 2 52 72 
1 50 10 69 
56 20 27 76 
5 22 23 7 
57 47 73 41 8 
18 24 53 32 66 
36 4 48 16 
55 11 42 63 
34 71 0 12 
65 54 39 60 30 
51 62 13 28 74 
35 15 45 17 
3 46 38 70 75 
33 29 40 9 
44 68 26 61 
31 64 37 43 
59 14 67 6 49 
25 58 19 
